(set-option :produce-models true)
(set-logic QF_UF)
(declare-fun p1() Bool)
(declare-fun p9() Bool)
(declare-fun p8() Bool)
(declare-fun p3() Bool)
(declare-fun p13() Bool)
(declare-fun p14() Bool)
(declare-fun p4() Bool)
(declare-fun p0() Bool)
(declare-fun p7() Bool)
(declare-fun p5() Bool)
(declare-fun p11() Bool)
(declare-fun p10() Bool)
(declare-fun p12() Bool)
(declare-fun p6() Bool)
(declare-fun p2() Bool)
(assert
(and (or (not p1) (not p9) (not p8)) (or (not p3) p13 p14) (or p8 (not p4) (not p0)) (or (not p4) p3 p7) (or (not p14) (not p5) p9) (or (not p11) p0 (not p10)) (or (not p10) (not p1) (not p3)) (or p3 (not p1) p5) (or (not p14) p12 p7) (or (not p6) (not p10) (not p1)) (or (not p10) p3 (not p2)) (or p2 p4 (not p2)) (or (not p5) (not p4) (not p13)) (or p1 (not p2) (not p3)) (or (not p14) p3 p4) (or p5 p11 (not p8)) (or (not p4) p13 (not p3)) (or (not p0) (not p3) (not p11)) (or (not p14) (not p7) (not p3)) (or p11 p12 (not p3)) (or (not p2) (not p0) (not p3)) (or (not p0) (not p9) (not p13)) (or p11 p0 p13) (or (not p11) p6 p4) (or p12 p5 (not p3)) (or p14 (not p1) p4) (or p8 (not p7) p9) (or (not p12) (not p10) p9) (or (not p8) p1 p14) (or (not p8) p1 p1) (or p11 p2 (not p11)) (or p6 p11 p1) (or p7 p7 p14) (or (not p13) (not p12) p11) (or p0 p10 (not p12)) (or (not p10) (not p12) (not p3)) (or (not p9) p10 (not p5)) (or (not p14) p4 (not p2)) (or (not p6) (not p11) p12) (or p4 p9 (not p2)) (or (not p12) p14 p12) (or (not p3) p0 (not p1)) (or p9 (not p2) p0) (or (not p9) p5 p9) (or (not p9) (not p13) p14) (or (not p10) p4 p11) (or (not p9) p7 (not p12)) (or (not p9) p0 (not p3)) (or p2 (not p1) (not p6)) (or p14 (not p8) (not p9)) (or p11 (not p9) (not p0)) (or p7 (not p9) (not p11)) (or p14 (not p5) (not p7)) (or p6 p5 p4) (or (not p12) (not p3) (not p12)) (or p10 (not p4) p6) (or (not p5) p10 (not p2)) (or p9 (not p9) p8) (or (not p13) (not p7) p10) (or (not p13) (not p3) (not p9)) (or (not p0) (not p4) (not p9)) (or (not p11) p3 p0) (or (not p5) p8 (not p2)) (or (not p6) (not p7) p5) (or p5 (not p13) p12) (or (not p10) p10 (not p0)) (or p2 p10 p12) (or p8 (not p10) (not p1)) (or (not p8) (not p4) p1))
)
(check-sat)
(get-model)
